+ srun -p Mix -N 1 --ntasks-per-node=1 --mem 256G -K -w nico4 python search_algo/main.py
r_cc_time:
[[[3. 3. 2. 1.]
  [3. 3. 2. 1.]]

 [[9. 7. 4. 1.]
  [3. 5. 4. 3.]]]
tot_comm_units:
[[12. 12.]
 [24. 24.]]
ub_comm_units (before):
[3. 9.]
ub_comm_units (after):
[3. 9.]
r_cc_time:
[[[0. 2. 4. 6.]
  [2. 2. 2. 0.]]

 [[2. 4. 6. 6.]
  [2. 4. 6. 6.]]]
tot_comm_units:
[[12. 12.]
 [24. 24.]]
ub_comm_units (before):
[6. 6.]
ub_comm_units (after):
[6. 6.]
r_cc_time:
[[[12. 10.  8.  6.]
  [ 2.  4.  4.  4.]]

 [[14. 14. 12. 10.]
  [14. 14. 12. 10.]]]
tot_comm_units:
[[36. 36.]
 [72. 72.]]
ub_comm_units (before):
[12. 18.]
ub_comm_units (after):
[12. 18.]
ub_cc_units: [[ 4.       12.      ]
 [ 4.       34.549236]]
[INFO]: fwd schedules
schedule:
[[[[ 0 -1 -1 -1 -1 -1 -1 -1]
   [ 1  1 -1 -1 -1 -1 -1 -1]
   [ 2  2  2 -1 -1 -1 -1 -1]
   [ 3  3  3  3 -1 -1 -1 -1]
   [ 3  3  3  3  3 -1 -1 -1]
   [ 2  2  2  2  2  2 -1 -1]
   [ 1  1  1  1  1  1  1 -1]
   [ 0  0  0  0  0  0  0  0]]]]
fob: 0, get_e2e_time(): [0.0004682 0.001161 ], get_absolute_cc_time:
[[0.000387  0.0004682]
 [0.001161  0.0007023]]
schedule:
[[[[ 0 -1 -1 -1]
   [ 0  1 -1 -1]
   [ 0  1  2 -1]
   [ 0  1  2  3]]]]
fob: 0, get_e2e_time(): [0.00046  0.001348], get_absolute_cc_time:
[[0.00046    0.00011705]
 [0.001348   0.00035115]]
schedule:
[[[[ 0 -1 -1 -1]
   [ 1  1 -1 -1]
   [ 2  2  2 -1]
   [ 3  3  3  3]]]]
fob: 0, get_e2e_time(): [0.00046  0.001348], get_absolute_cc_time:
[[0.00046   0.0002341]
 [0.001348  0.0002341]]
schedule:
[[[[ 0 -1 -1 -1]
   [ 0  1 -1 -1]
   [ 0  1  2 -1]
   [ 0  1  2  3]]]]
fob: 0, get_e2e_time(): [0.00046  0.001348], get_absolute_cc_time:
[[0.00046    0.00011705]
 [0.001348   0.00035115]]
Welcome to the CBC MILP Solver 
Version: 2.10.3 
Build Date: Dec 15 2019 

command line - /home/yhy/.local/anaconda3/envs/mg/lib/python3.8/site-packages/pulp/solverdir/cbc/linux/64/cbc ./search_algo/tmp/1aba54292de040c5b36f4168e12dcbcf-pulp.mps timeMode elapsed branch printingOptions all solution ./search_algo/tmp/1aba54292de040c5b36f4168e12dcbcf-pulp.sol (default strategy 1)
At line 2 NAME          MODEL
At line 3 ROWS
At line 107 COLUMNS
At line 449 RHS
At line 552 BOUNDS
At line 587 ENDATA
Problem MODEL has 102 rows, 57 columns and 272 elements
Coin0008I MODEL read with 0 errors
Option for timeMode changed from cpu to elapsed
Continuous objective value is 0.000286914 - 0.00 seconds
Cgl0004I processed model has 101 rows, 56 columns (34 integer (34 of which binary)) and 270 elements
Cbc0038I Initial state - 30 integers unsatisfied sum - 0.00686353
Cbc0038I Pass   1: suminf.    0.00000 (0) obj. 0.000889785 iterations 33
Cbc0038I Solution found of 0.000889785
Cbc0038I Relaxing continuous gives 0.000889785
Cbc0038I Before mini branch and bound, 4 integers at bound fixed and 2 continuous
Cbc0038I Full problem 101 rows 56 columns, reduced to 91 rows 46 columns
Cbc0038I Mini branch and bound improved solution from 0.000889785 to 0.000545957 (0.04 seconds)
Cbc0038I Round again with cutoff of 0.000511053
Cbc0038I Pass   2: suminf.    0.00199 (12) obj. 0.000511053 iterations 20
Cbc0038I Pass   3: suminf.    0.00199 (12) obj. 0.000511053 iterations 0
Cbc0038I Pass   4: suminf.    0.00448 (16) obj. 0.000511053 iterations 13
Cbc0038I Pass   5: suminf.    0.00448 (16) obj. 0.000511053 iterations 0
Cbc0038I Pass   6: suminf.    0.00448 (16) obj. 0.000511053 iterations 0
Cbc0038I Pass   7: suminf.    0.00364 (15) obj. 0.000511053 iterations 20
Cbc0038I Pass   8: suminf.    0.00364 (15) obj. 0.000511053 iterations 0
Cbc0038I Pass   9: suminf.    0.00364 (15) obj. 0.000511053 iterations 0
Cbc0038I Pass  10: suminf.    0.00351 (13) obj. 0.000511053 iterations 19
Cbc0038I Pass  11: suminf.    0.00351 (13) obj. 0.000511053 iterations 0
Cbc0038I Pass  12: suminf.    0.00351 (13) obj. 0.000511053 iterations 0
Cbc0038I Pass  13: suminf.    0.00349 (12) obj. 0.000511053 iterations 12
Cbc0038I Pass  14: suminf.    0.00349 (12) obj. 0.000511053 iterations 0
Cbc0038I Pass  15: suminf.    0.00349 (12) obj. 0.000511053 iterations 0
Cbc0038I Pass  16: suminf.    0.00600 (19) obj. 0.000511053 iterations 20
Cbc0038I Pass  17: suminf.    0.00495 (18) obj. 0.000511053 iterations 2
Cbc0038I Pass  18: suminf.    0.00495 (18) obj. 0.000511053 iterations 0
Cbc0038I Pass  19: suminf.    0.00495 (15) obj. 0.000511053 iterations 22
Cbc0038I Pass  20: suminf.    0.00495 (15) obj. 0.000511053 iterations 0
Cbc0038I Pass  21: suminf.    0.00495 (15) obj. 0.000511053 iterations 0
Cbc0038I Pass  22: suminf.    0.00483 (12) obj. 0.000511053 iterations 29
Cbc0038I Pass  23: suminf.    0.00377 (11) obj. 0.000511053 iterations 3
Cbc0038I Pass  24: suminf.    0.00377 (11) obj. 0.000511053 iterations 0
Cbc0038I Pass  25: suminf.    0.00339 (13) obj. 0.000511053 iterations 31
Cbc0038I Pass  26: suminf.    0.00339 (13) obj. 0.000511053 iterations 0
Cbc0038I Pass  27: suminf.    0.00339 (13) obj. 0.000511053 iterations 0
Cbc0038I Pass  28: suminf.    0.00345 (12) obj. 0.000511053 iterations 15
Cbc0038I Pass  29: suminf.    0.00345 (12) obj. 0.000511053 iterations 0
Cbc0038I Pass  30: suminf.    0.00345 (12) obj. 0.000511053 iterations 0
Cbc0038I Pass  31: suminf.    0.00345 (12) obj. 0.000511053 iterations 18
Cbc0038I No solution found this major pass
Cbc0038I Before mini branch and bound, 0 integers at bound fixed and 0 continuous
Cbc0038I Full problem 101 rows 56 columns, reduced to 101 rows 56 columns
Cbc0038I Mini branch and bound did not improve solution (0.07 seconds)
Cbc0038I After 0.07 seconds - Feasibility pump exiting with objective of 0.000545957 - took 0.06 seconds
Cbc0012I Integer solution of 0.000545957 found by feasibility pump after 0 iterations and 0 nodes (0.07 seconds)
Cbc0031I 7 added rows had average density of 3.1428571
Cbc0013I At root node, 7 cuts changed objective from 0.000286914 to 0.00040181397 in 100 passes
Cbc0014I Cut generator 0 (Probing) - 210 row cuts average 3.5 elements, 7 column cuts (7 active)  in 0.011 seconds - new frequency is 1
Cbc0014I Cut generator 1 (Gomory) - 16 row cuts average 5.8 elements, 0 column cuts (0 active)  in 0.003 seconds - new frequency is 1
Cbc0014I Cut generator 2 (Knapsack) - 0 row cuts average 0.0 elements, 0 column cuts (0 active)  in 0.002 seconds - new frequency is -100
Cbc0014I Cut generator 3 (Clique) - 0 row cuts average 0.0 elements, 0 column cuts (0 active)  in 0.001 seconds - new frequency is -100
Cbc0014I Cut generator 4 (MixedIntegerRounding2) - 11 row cuts average 2.0 elements, 0 column cuts (0 active)  in 0.003 seconds - new frequency is 1
Cbc0014I Cut generator 5 (FlowCover) - 0 row cuts average 0.0 elements, 0 column cuts (0 active)  in 0.005 seconds - new frequency is -100
Cbc0010I After 0 nodes, 1 on tree, 0.000545957 best solution, best possible 0.00040181397 (0.11 seconds)
Cbc0038I Full problem 101 rows 56 columns, reduced to 101 rows 35 columns
Cbc0001I Search completed - best objective 0.0005459569989983699, took 1212 iterations and 50 nodes (0.18 seconds)
Cbc0032I Strong branching done 476 times (1830 iterations), fathomed 2 nodes and fixed 25 variables
Cbc0035I Maximum depth 9, 2 variables fixed on reduced cost
Cuts at root node changed objective from 0.000286914 to 0.000401814
Probing was tried 219 times and created 706 cuts of which 0 were active after adding rounds of cuts (0.019 seconds)
Gomory was tried 201 times and created 65 cuts of which 0 were active after adding rounds of cuts (0.006 seconds)
Knapsack was tried 100 times and created 0 cuts of which 0 were active after adding rounds of cuts (0.002 seconds)
Clique was tried 100 times and created 0 cuts of which 0 were active after adding rounds of cuts (0.001 seconds)
MixedIntegerRounding2 was tried 201 times and created 24 cuts of which 0 were active after adding rounds of cuts (0.006 seconds)
FlowCover was tried 100 times and created 0 cuts of which 0 were active after adding rounds of cuts (0.005 seconds)
TwoMirCuts was tried 1 times and created 0 cuts of which 0 were active after adding rounds of cuts (0.000 seconds)
ZeroHalf was tried 1 times and created 0 cuts of which 0 were active after adding rounds of cuts (0.000 seconds)

Result - Optimal solution found

Objective value:                0.00054596
Enumerated nodes:               50
Total iterations:               1212
Time (CPU seconds):             0.18
Time (Wallclock seconds):       0.18

Option for printingOptions changed from normal to all
Total time (CPU seconds):       0.18   (Wallclock seconds):       0.20

TOT_TIME_UP: 0.4600000102072954
+ set +x
